;; produced by colibri_gnatprove.drv ;;
(set-info :smt-lib-version 2.5)
(set-logic QF_AUFBVFPNIRA)
(set-info :source |VC generated by SPARK 2014|)
(set-info :category industrial)
(set-info :status unknown)
;;; generated by SMT-LIB2 driver
;;; SMT-LIB2 driver: bit-vectors, common part
;;; SMT-LIB2: integer arithmetic
;;; SMT-LIB2: real arithmetic
(define-fun fp.isFinite32 ((x Float32)) Bool (not (or (fp.isInfinite x) (fp.isNaN x))))
(define-fun fp.isIntegral32 ((x Float32)) Bool (or (fp.isZero x) (and (fp.isNormal x) (= x (fp.roundToIntegral RNE x)))))
(declare-const abstr Int)

(define-fun to_int1 ((x (_ BitVec 8))) Int (ite (bvsge x (_ bv0 8)) abstr
                                           (- (- 256 abstr))))

(define-fun uint_in_range ((i Int)) Bool (and (<= 0 i) (<= i 255)))

(declare-const abstr1 (_ BitVec 8))

(declare-const abstr2 (_ BitVec 8))

(declare-const abstr3 (_ BitVec 8))

(declare-const abstr4 (_ BitVec 8))

(declare-const abstr5 (_ BitVec 8))

(define-fun nth_bv ((x (_ BitVec 8))
  (i (_ BitVec 8))) Bool (ite (not (= (bvand (bvlshr x i) #x01) #x00)) true
                         false))

(declare-const abstr6 Bool)

(define-fun eq_sub ((a (_ BitVec 8)) (b (_ BitVec 8)) (i Int)
  (n Int)) Bool abstr6)

(define-fun bv_min ((x (_ BitVec 8))
  (y (_ BitVec 8))) (_ BitVec 8) (ite (bvule x y) x y))

(define-fun bv_max ((x (_ BitVec 8))
  (y (_ BitVec 8))) (_ BitVec 8) (ite (bvule x y) y x))

(define-fun is_plus_infinity ((x Float32)) Bool (and (fp.isInfinite x)
                                                (fp.isPositive x)))

(define-fun is_minus_infinity ((x Float32)) Bool (and (fp.isInfinite x)
                                                 (fp.isNegative x)))

(define-fun is_plus_zero ((x Float32)) Bool (and (fp.isZero x)
                                            (fp.isPositive x)))

(define-fun is_minus_zero ((x Float32)) Bool (and (fp.isZero x)
                                             (fp.isNegative x)))

(declare-const max_int Int)

(define-fun in_int_range ((i Int)) Bool (and (<= (- max_int) i)
                                        (<= i max_int)))

(define-fun in_safe_int_range ((i Int)) Bool (and (<= (- 16777216) i)
                                             (<= i 16777216)))

(define-fun same_sign ((x Float32)
  (y Float32)) Bool (or (and (fp.isPositive x) (fp.isPositive y))
                    (and (fp.isNegative x) (fp.isNegative y))))

(define-fun diff_sign ((x Float32)
  (y Float32)) Bool (or (and (fp.isPositive x) (fp.isNegative y))
                    (and (fp.isNegative x) (fp.isPositive y))))

(define-fun product_sign ((z Float32) (x Float32)
  (y Float32)) Bool (and (=> (same_sign x y) (fp.isPositive z))
                    (=> (diff_sign x y) (fp.isNegative z))))

(define-fun sqr ((x Real)) Real (* x x))

(define-fun same_sign_real ((x Float32)
  (r Real)) Bool (or (and (fp.isPositive x) (< 0.0 r))
                 (and (fp.isNegative x) (< r 0.0))))

(define-fun in_range ((x Int)) Bool (or (= x 0) (= x 1)))

(declare-const attr__ATTRIBUTE_ADDRESS Int)

(declare-const attr__ATTRIBUTE_ADDRESS1 Int)

(declare-const battery_threshold Float32)

(declare-const attr__ATTRIBUTE_ADDRESS2 Int)

(define-fun in_range1 ((x (_ BitVec 8))) Bool (and (bvule #x00 x)
                                              (bvule x #x31)))

(define-fun in_range_int ((x Int)) Bool (and (<= 0 x) (<= x 49)))

(define-fun dynamic_invariant ((temp___expr_243 (_ BitVec 8))
  (temp___is_init_239 Bool) (temp___skip_constant_240 Bool)
  (temp___do_toplevel_241 Bool)
  (temp___do_typ_inv_242 Bool)) Bool (=>
                                     (or (= temp___is_init_239 true)
                                     (bvule #x00 #x31)) (in_range1
                                     temp___expr_243)))

(declare-const attr__ATTRIBUTE_MODULUS (_ BitVec 8))

(define-fun in_range2 ((x (_ BitVec 8))) Bool (and (bvule #x00 x)
                                              (bvule x #x32)))

(define-fun in_range_int1 ((x Int)) Bool (and (<= 0 x) (<= x 50)))

(define-fun dynamic_invariant1 ((temp___expr_250 (_ BitVec 8))
  (temp___is_init_246 Bool) (temp___skip_constant_247 Bool)
  (temp___do_toplevel_248 Bool)
  (temp___do_typ_inv_249 Bool)) Bool (=>
                                     (or (= temp___is_init_246 true)
                                     (bvule #x00 #x32)) (in_range2
                                     temp___expr_250)))

(declare-const attr__ATTRIBUTE_ADDRESS3 Int)

(declare-const attr__ATTRIBUTE_MODULUS1 (_ BitVec 8))

(define-fun in_range3 ((x (_ BitVec 8))) Bool (and (bvule #x00 x)
                                              (bvule x #x32)))

(define-fun in_range_int2 ((x Int)) Bool (and (<= 0 x) (<= x 50)))

(define-fun dynamic_invariant2 ((temp___expr_282 (_ BitVec 8))
  (temp___is_init_278 Bool) (temp___skip_constant_279 Bool)
  (temp___do_toplevel_280 Bool)
  (temp___do_typ_inv_281 Bool)) Bool (=>
                                     (or (= temp___is_init_278 true)
                                     (bvule #x00 #x32)) (in_range3
                                     temp___expr_282)))

(declare-const attr__ATTRIBUTE_MODULUS2 (_ BitVec 8))

(define-fun dynamic_invariant3 ((temp___expr_187 (_ BitVec 8))
  (temp___is_init_183 Bool) (temp___skip_constant_184 Bool)
  (temp___do_toplevel_185 Bool) (temp___do_typ_inv_186 Bool)) Bool true)

(define-fun dynamic_invariant4 ((temp___expr_236 Float32)
  (temp___is_init_232 Bool) (temp___skip_constant_233 Bool)
  (temp___do_toplevel_234 Bool)
  (temp___do_typ_inv_235 Bool)) Bool (=>
                                     (or (= temp___is_init_232 true)
                                     (fp.leq (fp.neg (fp #b0 #b11111110 #b11111111111111111111111)) (fp #b0 #b11111110 #b11111111111111111111111)))
                                     (fp.isFinite32 temp___expr_236)))

(declare-const battery_level Float32)

(declare-const attr__ATTRIBUTE_ADDRESS4 Int)

(declare-const c (_ BitVec 8))

(declare-const attr__ATTRIBUTE_ADDRESS5 Int)

;; battery_threshold__def_axiom
  (assert
  (= battery_threshold (fp #b0 #b01111100 #b10011001100110011001101)))

(declare-const current_time (_ BitVec 8))

(declare-const counter (_ BitVec 8))

(declare-const o (_ BitVec 8))

(declare-const o1 (_ BitVec 8))

(declare-const o2 Bool)

(declare-const o3 Bool)

(declare-const o4 (_ BitVec 8))

(declare-const o5 (_ BitVec 8))

(declare-const temp___319 (_ BitVec 8))

(declare-const o6 (_ BitVec 8))

(declare-const o7 (_ BitVec 8))

(declare-const temp___321 (_ BitVec 8))

(declare-const o8 (_ BitVec 8))

(declare-const o9 (_ BitVec 8))

(declare-const temp___318 (_ BitVec 8))

(declare-const o10 (_ BitVec 8))

(declare-const o11 (_ BitVec 8))

(declare-const o12 Float32)

(declare-const result (_ BitVec 8))

(declare-const current_time1 (_ BitVec 8))

(declare-const result1 (_ BitVec 8))

(declare-const counter1 (_ BitVec 8))

(declare-const result2 Bool)

(declare-const result3 Bool)

(declare-const result4 Bool)

(declare-const result5 Bool)

(declare-const result6 Bool)

(declare-const result7 (_ BitVec 8))

(declare-const counter2 (_ BitVec 8))

(declare-const current_time2 (_ BitVec 8))

(declare-const counter3 (_ BitVec 8))

(declare-const current_time3 (_ BitVec 8))

(declare-const counter4 (_ BitVec 8))

;; H
  (assert (fp.isFinite32 battery_threshold))

;; H
  (assert
  (= (fp #b0 #b01111100 #b10011001100110011001101) battery_threshold))

;; H
  (assert (in_range3 counter))

;; H
  (assert (in_range1 current_time))

;; H
  (assert (fp.isFinite32 battery_level))

;; H
  (assert (= counter c))

;; H
  (assert true)

;; H
  (assert
  (=> (bvule (bvsub #x32 current_time) #x01)
  (= o (bvsub (bvadd current_time #x01) #x32))))

;; H
  (assert
  (=> (not (bvule (bvsub #x32 current_time) #x01))
  (= o (bvadd current_time #x01))))

;; H
  (assert (= current_time1 o))

;; H
  (assert (fp.lt battery_level battery_threshold))

;; H
  (assert
  (and (= o1 (bv_min (bvadd counter #x01) #x32)) (in_range3
  (bv_min (bvadd counter #x01) #x32))))

;; H
  (assert (= counter1 o1))

;; H
  (assert (=> (= c #x32) (= counter1 #x32)))

;; H
  (assert (= o3 (ite (not (= o2 true)) true false)))

;; H
  (assert (= result2 true))

;; H
  (assert (and (= o9 counter1) (in_range1 counter1)))

;; H
  (assert (= temp___318 (bvsub current_time1 o9)))

;; H
  (assert (and (= o10 counter1) (in_range1 counter1)))

;; H
  (assert (= result4 (ite (bvult current_time1 o10) true false)))

;; H
  (assert (=> (= result4 true) (= o11 (bvadd temp___318 #x32))))

;; H
  (assert (=> (not (= result4 true)) (= o11 temp___318)))

;; H
  (assert (= result3 (ite (fp.leq battery_threshold o12) true false)))

;; H
  (assert (= result3 true))

;; H
  (assert
  (and (= o4 (bvsub counter1 #x01)) (in_range1 (bvsub counter1 #x01))))

;; H
  (assert (= result5 (ite (bvuge current_time1 o4) true false)))

;; H
  (assert (= result5 true))

;; H
  (assert
  (and (= o5 (bvsub counter1 #x01)) (in_range1 (bvsub counter1 #x01))))

;; H
  (assert (= temp___319 (bvsub current_time1 o5)))

(assert
;; WP_parameter_def
 ;; File "failsafe.adb", line 31, characters 0-0
  (not (in_range1 (bvsub counter1 #x01))))
(check-sat)
(exit)
